Runtime information:
* Directory : /data/scratch/Unim/Achilli/Silicene/4r3x4r3/Si-Sn-SnAg-Ag/4x4-refine
>> Start of run:   1-FEB-2022  11:22:40

reinit: Reading from standard input
reinit: Dumping input in INPUT_TMP.86398
************************** Dump of input data file ****************************
SystemName   Sn-Si-Ag
SystemLabel  Sn-Si-Ag
NumberOfAtoms   230
NumberOfSpecies   3
%block ChemicalSpeciesLabel
   1   14   Si
   2   47   Ag
   3   50   Sn
%endblock ChemicalSpeciesLabel
AtomicCoordinatesFormat ScaledCartesian
LatticeConstant   2.942 Ang
%block LatticeVectors
  6.00000   -3.464101615137754  0.0
  0.00000    6.928203230275508  0.0
  0.00000    0.00000           10.00000
%endblock LatticeVectors
#%include structure.fdf
 WriteCoorXmol  T           # writes .xyz file in Ang
%block kgrid_Monkhorst_Pack
   2   0   0    0.0
   0   2   0    0.0
   0   0   1    0.0
%endblock kgrid_Monkhorst_Pack
XC.functional          GGA
XC.authors             PBE
MM.UnitsDistance Ang  # what this program prints out DO NOT CHANGE
MM.UnitsEnergy    eV  # what this program prints out DO NOT CHANGE
MM.Grimme.S6     0.75 # Grimme-paper for PBE (correct for your functional)
MM.Grimme.D     20.   # Grimme-paper (correct for your functional)
%block MM.Potentials
  1   2 Grimme    156.40      3.355 # Si / Ag
  1   3 Grimme    195.91      3.520 # Si / Sn
  2   3 Grimme    320.29      3.443 # Ag / Sn
%endblock MM.Potentials
MeshCutoff             450 Ry
###  SCF
MaxSCFIterations       100
SCF.Mix.First          T             # the first SCF is mixed
SCF.Mixer.Method       Broyden         #Pulay|Broyden|Linear
SCF.Mixer.History      7        #old DM.NumberPulay  5
DM.MixingWeight        0.08      #0.0100
#SCF.Mixer.Kick         35
#SCF.Mixer.Kick.Weight  0.2
DM.UseSaveDM           .true.
DM.Tolerance           1.d-6     #1.d-5
OccupationFunction     FD
#ElectronicTemperature  100 K   #= 8.6 meV
#SolutionMethod        diagon
### Spin Polarized calculation (default F)
SpinPolarized  F
NonCollinearSpin    F
FixSpin  F
##TotalSpin           0.0   #not read if FixSpin F. TotalSpin pol in units of 1/2
### relax
UseStructFile        .true.
#MD.TypeOfRun       CG
MD.TypeOfRun       FIRE
MD.FIRE.TimeStep   0.9 fs
MD.NumCGsteps     100          # 100
MD.MaxForceTol     0.04 eV/Ang   #0.001 eV/Ang     #default: 0.04 eV/Ang #1.0e-03 eV/Ang
MD.MaxDispl      0.12  Ang      # Maximum atomic displacement in 1 CG step
#MD.VariableCell    F
%block GeometryConstraints
position from 135   to 230
%endblock GeometryConstraints
WriteCoorXmol           true
WriteCoorCerius         true
WriteXML                F
SaveRho                 .true.       # Write valence pseudocharge at the mesh
#SaveDeltaRho            .true.       # Write RHOscf-RHOatm at the mesh
#SaveElectrostaticPotential .true.    # Write the total elect. pot. at the mesh
#SaveTotalPotential      .true.       # Write the total pot. at the mesh
SaveTotalCharge         .true.
#SaveIonicCharge         .true.
WriteForces   .true.
WriteCoorStep .true.
WriteDenchar  .true.
WriteMullikenPop       1
### basis
#PAO.BasisType         split
#PAO.SplitNorm         0.15
#PAO.EnergyShift       272 meV
PAO.BasisSize         DZP
#DOS
%block PDOS.kgrid_Monkhorst_Pack
  10   0   0   0.0
  0   10   0   0.0
  0   0   1   0.0
%endblock PDOS.kgrid_Monkhorst_Pack
%block ProjectedDensityOfStates
-13.00 2.00 0.120 350 eV
%endblock ProjectedDensityOfStates
************************** End of input data file *****************************

reinit: -----------------------------------------------------------------------
reinit: System Name: Sn-Si-Ag
reinit: -----------------------------------------------------------------------
reinit: System Label: Sn-Si-Ag
reinit: -----------------------------------------------------------------------
Reading two-body potentials
Grimme - two-body potential between 1 and 2
Grimme - two-body potential between 1 and 3
Grimme - two-body potential between 2 and 3

initatom: Reading input for the pseudopotentials and atomic orbitals ----------
Species number:   1 Atomic number:   14 Label: Si
Species number:   2 Atomic number:   47 Label: Ag
Species number:   3 Atomic number:   50 Label: Sn

 ---- Processing specs for species: Si
Ground state valence configuration:   3s02  3p02
PSML file version: 1.1
GGA--PBE XC_GGA_X_PBE--XC_GGA_C_PBE pb
 Using ATOM defaults for log grid...
PSML uuid: 78f1be70-be41-11e7-6330-179677bb7285

 ---- Processing specs for species: Ag
Ground state valence configuration:   5s01  4d10
PSML file version: 1.1
GGA--PBE XC_GGA_X_PBE--XC_GGA_C_PBE pb
 Using ATOM defaults for log grid...
PSML uuid: 19539b60-be45-11e7-6f7e-27f8e9face14

 ---- Processing specs for species: Sn
Ground state valence configuration:   5s02  5p02
PSML file version: 1.1
GGA--PBE XC_GGA_X_PBE--XC_GGA_C_PBE pb
 Using ATOM defaults for log grid...
PSML uuid: 3ce1eeb0-be45-11e7-559c-c451ff5abc41
Semicore shell(s) with  8 electrons included in the valence for Ag
Semicore shell(s) with 10 electrons included in the valence for Sn

---- Pseudopotential check for Si

Pseudized shells:
3s( 2.00) rc: 1.60
3p( 2.00) rc: 1.72
3d( 0.00) rc: 1.92
Valence configuration for ps generation: 3s:3p: Total charge:   4.000000

[...]

Pseudized shells:
4s( 2.00) rc: 1.41
4p( 6.00) rc: 1.47
4d(10.00) rc: 1.61
Valence configuration for ps generation: 4s:4p:4d:5s: Total charge:  19.000000
Semicore shell(s): 4s 4p

---- Pseudopotential check for Sn

Pseudized shells:
5s( 2.00) rc: 2.27
5p( 2.00) rc: 2.62
4d(10.00) rc: 1.86
Valence configuration for ps generation: 4d:5s:5p: Total charge:  14.000000
Semicore shell(s): 4d
For Si, standard SIESTA heuristics set lmxkb to 3
 (one more than the basis l, including polarization orbitals).
Use PS.lmax or PS.KBprojectors blocks to override.
For Ag, standard SIESTA heuristics set lmxkb to 3
 (one more than the basis l, including polarization orbitals).
Use PS.lmax or PS.KBprojectors blocks to override.
For Sn, standard SIESTA heuristics set lmxkb to 3
 (one more than the basis l, including polarization orbitals).
Use PS.lmax or PS.KBprojectors blocks to override.
Si pseudopotential only contains V_ls up to l=2 -- lmxkb reset.
Ag pseudopotential only contains V_ls up to l=2 -- lmxkb reset.
Sn pseudopotential only contains V_ls up to l=2 -- lmxkb reset.

<basis_specs>
Si                   Z=  14    Mass=  28.090        Charge= 0.17977+309
Lmxo=2 Lmxkb= 2    BasisType=split      Semic=F
L=0  Nsemic=0  Cnfigmx=3
          i=1  nzeta=2  polorb=0  (3s)
            splnorm:   0.15000
               vcte:    0.0000
               rinn:    0.0000
               qcoe:    0.0000
               qyuk:    0.0000
               qwid:   0.10000E-01
                rcs:    0.0000      0.0000
            lambdas:    1.0000      1.0000
L=1  Nsemic=0  Cnfigmx=3
          i=1  nzeta=2  polorb=1  (3p)  (to be polarized perturbatively)
            splnorm:   0.15000
               vcte:    0.0000
               rinn:    0.0000
               qcoe:    0.0000
               qyuk:    0.0000
               qwid:   0.10000E-01
                rcs:    0.0000      0.0000
            lambdas:    1.0000      1.0000
L=2  Nsemic=0  Cnfigmx=3
          i=1  nzeta=0  polorb=0  (3d)  (perturbative polarization orbital)
L=0  Nkbl=1  erefs: 0.17977+309
L=1  Nkbl=1  erefs: 0.17977+309
L=2  Nkbl=1  erefs: 0.17977+309
</basis_specs>

atom: Called for Si                    (Z =  14)

read_vps: Pseudopotential generation method:
read_vps: ONCVPSP-3.Hamann's oncvpsp
Valence charge in pseudo generation:    4.00000

read_vps: Pseudopotential includes a core correction:
read_vps: Pseudo-core for xc-correction

xc_check: Exchange-correlation functional:
xc_check: GGA Perdew, Burke & Ernzerhof 1996
Got Vlocal (oncv-fit) from psml data
Choosing vlocal chloc cutoff:  4.645526
qtot up to nchloc:    3.99912657
atom: Maximum radius forchloc:    4.64553
atom: Maximum radius for r*vlocal+2*Zval:    4.64553
Reading KB projs from Si psml data
Using scalar-relativistic projectors in PSML file

PSML: Kleinman-Bylander projectors:
   l= 0   rc=  1.625530   Ekb= 10.337930
   l= 0   rc=  1.625530   Ekb=  1.659765
   l= 1   rc=  1.752147   Ekb=  5.142565
   l= 1   rc=  1.752147   Ekb=  1.156614
   l= 2   rc=  1.960800   Ekb= -4.854621
   l= 2   rc=  1.960800   Ekb= -0.976194

PSML: Total number of  Kleinman-Bylander projectors:  18
atom: -------------------------------------------------------------------------

atom: SANKEY-TYPE ORBITALS:
atom: Selected multiple-zeta basis: split

SPLIT: Orbitals with angular momentum L= 0

SPLIT: Basis orbitals for state 3s

SPLIT: PAO cut-off radius determined from an
SPLIT: energy shift=  0.020000 Ry

   izeta = 1
                 lambda =    1.000000
                     rc =    5.007352
                 energy =   -0.776280
                kinetic =    0.606317
    potential(screened) =   -1.382597
       potential(ionic) =   -3.806997

   izeta = 2
                 rmatch =    4.418952
              splitnorm =    0.150000
                 energy =   -0.666057
                kinetic =    0.943711
    potential(screened) =   -1.609768
       potential(ionic) =   -4.128572

[...]

SPLIT: Basis orbitals for state 3p

[...]

POLgen: Perturbative polarization orbital with L=  2

POLgen: Polarization orbital for state 3p

   izeta = 1
                     rc =    6.270866
                 energy =    0.440159
                kinetic =    1.303833
    potential(screened) =   -0.863673
       potential(ionic) =   -2.928134
atom: Total number of Sankey-type orbitals: 13

atm_pop: Valence configuration (for local Pseudopot. screening):
 3s( 2.00)
 3p( 2.00)
 3d( 0.00)
Vna: chval, zval:    4.00000   4.00000

Vna:  Cut-off radius for the neutral-atom potential:   6.270866
comcore: Pseudo-core radius Rcore=  2.888916

atom: _________________________________________________________________________

<basis_specs>
Ag                   Z=  47    Mass=  107.87        Charge= 0.17977+309
Lmxo=2 Lmxkb= 2    BasisType=split      Semic=T
L=0  Nsemic=1  Cnfigmx=5
          i=1  nzeta=1  polorb=0  (4s)
            splnorm:   0.15000
               vcte:    0.0000
               rinn:    0.0000
               qcoe:    0.0000
               qyuk:    0.0000
               qwid:   0.10000E-01
                rcs:    0.0000
            lambdas:    1.0000
          i=2  nzeta=2  polorb=0  (5s)  (to be polarized non-perturbatively)
            splnorm:   0.15000
               vcte:    0.0000
               rinn:    0.0000
               qcoe:    0.0000
               qyuk:    0.0000
               qwid:   0.10000E-01
                rcs:    0.0000      0.0000
            lambdas:    1.0000      1.0000
L=1  Nsemic=1  Cnfigmx=5
          i=1  nzeta=1  polorb=0  (4p)
            splnorm:   0.15000
               vcte:    0.0000
               rinn:    0.0000
               qcoe:    0.0000
               qyuk:    0.0000
               qwid:   0.10000E-01
                rcs:    0.0000
            lambdas:    1.0000
          i=2  nzeta=1  polorb=0  (5p)  (non-perturbative polarization shell)
            splnorm:   0.15000
               vcte:    0.0000
               rinn:    0.0000
               qcoe:    0.0000
[...]

Species: Si
Atom  Qatom  Qorb
               3Pdxy   3Pdyz   3Pdz2   3Pdxz   3Pdx2-y2
   1  3.921   0.582   0.598   0.396   0.587   0.404   0.362   0.214   0.374
              0.092   0.067   0.073   0.077   0.093
   2  4.104   0.779   0.532   0.607   0.853   0.612   0.202   0.034   0.206
              0.072   0.047   0.032   0.050   0.076
   3  3.910   0.589   0.606   0.376   0.604   0.402   0.395   0.183   0.349
              0.102   0.079   0.069   0.066   0.088
   4  3.860   0.630   0.584   0.340   0.562   0.401   0.414   0.176   0.355
              0.100   0.102   0.050   0.071   0.076
   5  4.059   0.728   0.551   0.581   0.790   0.578   0.234   0.046   0.252
              0.079   0.046   0.036   0.053   0.085
   6  3.879   0.644   0.581   0.412   0.560   0.373   0.363   0.164   0.401
              0.080   0.066   0.056   0.092   0.088
   7  3.901   0.590   0.602   0.369   0.621   0.421   0.404   0.165   0.334
              0.104   0.078   0.068   0.060   0.084
   8  3.937   0.610   0.595   0.383   0.659   0.441   0.397   0.131   0.326
              0.109   0.085   0.064   0.054   0.084
   9  4.078   0.775   0.548   0.612   0.801   0.605   0.201   0.023   0.223
              0.069   0.048   0.040   0.055   0.077
  10  3.877   0.590   0.600   0.400   0.539   0.363   0.363   0.240   0.404
              0.078   0.056   0.082   0.073   0.088
  11  3.936   0.585   0.602   0.406   0.644   0.406   0.371   0.155   0.371
              0.096   0.062   0.077   0.071   0.091
  12  4.074   0.756   0.550   0.601   0.827   0.596   0.198   0.033   0.226
              0.073   0.045   0.035   0.054   0.081
  13  3.854   0.627   0.586   0.382   0.514   0.353   0.360   0.227   0.400
              0.081   0.073   0.056   0.105   0.090
  14  3.899   0.608   0.599   0.396   0.543   0.363   0.362   0.223   0.414
              0.080   0.061   0.082   0.080   0.089
  15  4.086   0.758   0.541   0.611   0.840   0.588   0.207   0.034   0.225
              0.076   0.048   0.033   0.048   0.076
  16  4.075   0.731   0.558   0.567   0.814   0.584   0.245   0.043   0.228
              0.084   0.053   0.049   0.043   0.076
  17  3.881   0.598   0.600   0.358   0.595   0.405   0.405   0.165   0.365
              0.096   0.094   0.062   0.058   0.080
  18  3.916   0.639   0.565   0.390   0.613   0.408   0.367   0.197   0.353
              0.096   0.090   0.051   0.059   0.090
  19  3.909   0.595   0.600   0.388   0.578   0.379   0.371   0.192   0.385
              0.097   0.062   0.075   0.094   0.093
  20  4.118   0.782   0.538   0.616   0.866   0.613   0.195   0.036   0.194
              0.071   0.051   0.035   0.051   0.072
  21  3.983   0.582   0.591   0.406   0.727   0.418   0.372   0.149   0.352
              0.102   0.061   0.070   0.057   0.097
  22  3.875   0.648   0.569   0.366   0.483   0.363   0.379   0.262   0.371
              0.095   0.102   0.055   0.100   0.081
  23  4.031   0.706   0.556   0.560   0.778   0.543   0.257   0.053   0.275
              0.086   0.046   0.036   0.050   0.087
  24  3.886   0.626   0.585   0.392   0.519   0.407   0.356   0.250   0.373
              0.075   0.078   0.058   0.077   0.089
  25  3.916   0.575   0.606   0.363   0.585   0.409   0.419   0.210   0.345
              0.104   0.074   0.087   0.058   0.082
  26  3.895   0.659   0.565   0.369   0.638   0.436   0.410   0.129   0.326
              0.107   0.079   0.045   0.055   0.077
  27  4.049   0.784   0.542   0.597   0.785   0.572   0.210   0.025   0.237
              0.080   0.049   0.041   0.053   0.076
  28  3.915   0.607   0.589   0.405   0.612   0.397   0.370   0.174   0.380
              0.089   0.060   0.068   0.074   0.090
  29  3.899   0.657   0.572   0.405   0.515   0.367   0.343   0.263   0.386
              0.086   0.069   0.059   0.090   0.086
  30  4.107   0.781   0.544   0.629   0.819   0.627   0.185   0.036   0.203
              0.065   0.054   0.037   0.057   0.070
[...]
              0.090   0.063   0.085   0.065   0.091
  48  4.087   0.759   0.543   0.618   0.833   0.585   0.195   0.035   0.235
              0.069   0.045   0.034   0.055   0.080
  49  3.914   0.612   0.593   0.406   0.571   0.393   0.356   0.203   0.381
              0.077   0.071   0.071   0.086   0.095
  50  3.892   0.597   0.597   0.405   0.546   0.361   0.359   0.225   0.417
              0.079   0.058   0.082   0.079   0.088
  51  4.073   0.747   0.540   0.583   0.832   0.588   0.228   0.039   0.232
              0.078   0.046   0.032   0.048   0.081
  52  3.962   0.587   0.599   0.395   0.673   0.434   0.388   0.153   0.339
              0.103   0.075   0.071   0.059   0.087
  53  3.903   0.652   0.572   0.380   0.594   0.431   0.391   0.186   0.331
              0.112   0.080   0.044   0.056   0.073
  54  4.069   0.756   0.543   0.580   0.799   0.567   0.224   0.046   0.259
              0.075   0.044   0.034   0.057   0.086

[...]

Species: Sn
Atom  Qatom  Qorb
  55 14.067   0.920   0.518   0.454   0.473   0.508   0.215   0.212   0.223
              2.006   2.008   2.003   2.004   2.004   0.051   0.086   0.140

[...]

              0.155   0.171

mulliken: Qtot =     3320.000

outcoor: Relaxed atomic coordinates (scaled):
    0.21468568    0.33334324    1.66863814   1       1  Si
    0.84041985    0.69768612    2.02047842   1       2  Si
    2.18779434    1.45105849    1.70321803   1       3  Si
   -1.13734252    1.92792423    1.75728352   1       4  Si
    0.19263938    2.66703218    2.05184544   1       5  Si
    0.85673231    3.01209864    1.78415473   1       6  Si
    0.84302124    1.45391523    1.74641007   1       7  Si
    1.51620066    1.90149294    1.77742417   1       8  Si
   -1.15614899    2.67910654    2.06138115   1       9  Si
   -0.47776427    3.03070314    1.79605292   1      10  Si
    2.85176368    0.35085627    1.77194408   1      11  Si
    1.53384086    2.66450816    2.03264597   1      12  Si
   -1.81433330    3.01195117    1.72388803   1      13  Si
    1.52499765    0.35126205    1.76322511   1      14  Si
    2.18919052    0.72084004    2.03212606   1      15  Si
   -0.49185133    1.49080485    1.96597277   1      16  Si
    0.17469078    1.90652863    1.80020826   1      17  Si
   -0.47621118    0.74765990    1.64146736   1      18  Si
    4.24753124    0.35583146    1.72600079   1      19  Si
    4.84874315    0.72549132    2.11388536   1      20  Si
    6.17461504    1.49965410    1.91835141   1      21  Si
    2.87977728    1.86912639    1.65259270   1      22  Si
    4.20098090    2.65201677    1.97764793   1      23  Si
    4.88365022    2.99640386    1.72646774   1      24  Si
    4.85301733    1.45913546    1.78936631   1      25  Si
    5.50323585    1.92373905    1.83995688   1      26  Si
    2.84027094    2.62464097    1.96562442   1      27  Si
    3.51972558    3.02470316    1.79601955   1      28  Si
    6.87409666    0.35847866    1.67919234   1      29  Si
    5.50087457    2.66418428    2.13228049   1      30  Si
    2.17796495    3.00725512    1.67733917   1      31  Si
    5.51385664    0.37112357    1.83788242   1      32  Si
    6.21291011    0.70890835    1.97489620   1      33  Si
    3.50039978    1.49053484    2.04835452   1      34  Si
    4.16610515    1.87773707    1.79880317   1      35  Si
    3.54745204    0.75788207    1.70368539   1      36  Si
    2.21699146    3.82605170    1.73108633   1      37  Si
    2.84913746    4.20040800    2.06047886   1      38  Si
    4.19160736    4.94652666    1.77551061   1      39  Si
    0.86013797    5.35432335    1.91925328   1      40  Si
    2.19364109    6.11207635    2.08258005   1      41  Si
    2.85429447    6.47421927    1.79043031   1      42  Si
    2.84902658    4.94206716    1.74189048   1      43  Si
    3.51911547    5.39027663    1.77988256   1      44  Si
    0.84971507    6.13542778    1.95414834   1      45  Si
    1.54676300    6.46957061    1.76566474   1      46  Si
    4.84214999    3.80270092    1.75182046   1      47  Si
    3.53314283    6.14092529    2.05948086   1      48  Si
    0.14162348    6.45882018    1.77064384   1      49  Si
    3.52019905    3.83288101    1.80038113   1      50  Si
    4.20155545    4.18853466    2.03274544   1      51  Si
    1.52828079    4.93682582    1.82227100   1      52  Si
    2.18175162    5.39557062    1.71193821   1      53  Si
    1.53093335    4.15329642    1.99464613   1      54  Si
    0.58332843    0.16763657    0.84521750   3      55  Sn
    0.55137611    1.23981263    0.86678052   3      56  Sn
    1.73983056   -1.02998626    0.98681323   3      57  Sn
    1.63501456    0.25845560    0.85272953   3      58  Sn
    3.54134600   -1.23693686    0.90440143   3      59  Sn
    2.68335586   -0.59020334    0.89186642   3      60  Sn
[...]
    4.50000000    1.44337567   -1.63299316   2     216  Ag
    5.50000000    1.44337567   -1.63299316   2     217  Ag
    5.00000000    2.30940108   -1.63299316   2     218  Ag
    0.00000000    5.77350269   -1.63299316   2     219  Ag
    1.00000000    5.77350269   -1.63299316   2     220  Ag
    0.50000000    6.63952810   -1.63299316   2     221  Ag
    1.50000000    4.90747729   -1.63299316   2     222  Ag
    2.50000000    4.90747729   -1.63299316   2     223  Ag
    2.00000000    5.77350269   -1.63299316   2     224  Ag
    3.00000000    4.04145188   -1.63299316   2     225  Ag
    4.00000000    4.04145189   -1.63299316   2     226  Ag
    3.50000000    4.90747729   -1.63299316   2     227  Ag
    4.50000000    3.17542648   -1.63299316   2     228  Ag
    5.50000000    3.17542648   -1.63299316   2     229  Ag
    5.00000000    4.04145189   -1.63299316   2     230  Ag

coxmol: Writing XMOL coordinates into file Sn-Si-Ag.xyz

coceri: Writing CERIUS coordinates into file Sn-Si-Ag.xtl

siesta: PDOS info
siesta: E1 -- E2, sigma [eV], nhist:  -13.000 --    2.000    0.120 350

diag: Algorithm                                     = D&C
diag: Parallel over k                               =   F
diag: Use parallel 2D distribution                  =   T
diag: Parallel block-size                           = 24
diag: Parallel distribution                         =     4 x     4
diag: Used triangular part                          = Lower
diag: Absolute tolerance                            =  0.100E-15
diag: Orthogonalization factor                      =  0.100E-05

siesta: Program's energy decomposition (eV):
siesta: Ebs     =    -94660.006095
siesta: Eions   =    831007.213855
siesta: Ena     =     73737.129376
siesta: Ekin    =    248377.638118
siesta: Enl     =    -34979.054811
siesta: Eso     =         0.000000
siesta: Edftu   =         0.000000
siesta: DEna    =      6633.639691
siesta: DUscf   =       259.027906
siesta: DUext   =         0.000000
siesta: Ex      =   -105372.107729
siesta: Ec      =     -6314.441822
siesta: Exc     =   -111686.549552
siesta: eta*DQ  =         0.000000
siesta: Emadel  =         0.000000
siesta: Emeta   =         0.000000
siesta: Emolmec =       -30.256219
siesta: Ekinion =         0.000000
siesta: Eharris =   -648695.639346
siesta: Etot    =   -648695.639346
siesta: FreeEng =   -648695.799254

siesta: Final energy (eV):
siesta:  Band Struct. =  -94660.006095
siesta:       Kinetic =  248377.638118
siesta:       Hartree = 3025555.258439
siesta:       Edftu   =       0.000000
siesta:       Eso     =       0.000000
siesta:    Ext. field =       0.000000
siesta:         Exch. = -105372.107729
siesta:         Corr. =   -6314.441822
siesta:   Exch.-corr. = -111686.549552
siesta:  Ion-electron =-6307864.880806
siesta:       Ion-ion = 2496953.150673
siesta:       Ekinion =       0.000000
siesta:         Total = -648695.639346
siesta:         Fermi =      -3.119125

siesta: Atomic forces (eV/Ang):
siesta:      1   -0.001409   -0.004635    0.001078
siesta:      2    0.000904   -0.002826    0.006271
siesta:      3   -0.001827    0.003488    0.000596
siesta:      4    0.001504    0.000427    0.003343
siesta:      5   -0.005086    0.000305   -0.001950
siesta:      6   -0.004255    0.015779   -0.001882
siesta:      7   -0.007118    0.000208    0.020044
siesta:      8   -0.000986    0.013016   -0.006868
siesta:      9   -0.001613   -0.005393   -0.001993
siesta:     10   -0.002001    0.008085   -0.004861
siesta:     11    0.000699    0.007417    0.003978
siesta:     12    0.002339   -0.003617    0.001490
siesta:     13   -0.001420    0.004485    0.004260
siesta:     14   -0.003405    0.000255   -0.001982
siesta:     15   -0.001501    0.001041    0.000234
siesta:     16   -0.003205   -0.013543    0.028880
siesta:     17    0.004674    0.003571    0.017030
siesta:     18    0.007038    0.019146    0.002416
siesta:     19    0.000974   -0.002499   -0.006346
siesta:     20   -0.006113    0.004039    0.003771
siesta:     21   -0.009912    0.004360    0.002417
siesta:     22   -0.004262    0.000365    0.006147
siesta:     23    0.004026    0.003369   -0.004064
siesta:     24    0.002482    0.001979   -0.007286
siesta:     25   -0.003816    0.001147   -0.005248
siesta:     26   -0.008509    0.008183   -0.007071
siesta:     27   -0.001088    0.006520   -0.002376
siesta:     28   -0.006898    0.003626   -0.003576
siesta:     29   -0.002005   -0.002700   -0.001180
siesta:     30   -0.004728    0.007404    0.008845
siesta:     31   -0.008663    0.002502   -0.002845
siesta:     32    0.000307   -0.000727   -0.002218
siesta:     33   -0.007131    0.009756   -0.008662
siesta:     34   -0.000285    0.002277    0.014921
siesta:     35   -0.002561    0.001225   -0.001114
siesta:     36   -0.000928    0.009373    0.009775
siesta:     37   -0.002373    0.001974    0.001885
siesta:     38    0.000334    0.005010    0.005108
siesta:     39    0.001311   -0.000613    0.008788
siesta:     40   -0.002124    0.010906   -0.004224
siesta:     41   -0.005168   -0.001520   -0.002409
siesta:     42   -0.002050    0.002376   -0.001577
siesta:     43    0.003297   -0.003092   -0.001854
siesta:     44   -0.003815    0.000638    0.002377
siesta:     45   -0.003466    0.002309    0.010193
siesta:     46   -0.004185   -0.003968   -0.006851
siesta:     47    0.002399    0.007267   -0.000536
siesta:     48   -0.007723    0.000793    0.004082
siesta:     49   -0.002643    0.006569    0.000160
siesta:     50    0.001378   -0.001509   -0.003956
siesta:     51    0.004919   -0.001724    0.001110
siesta:     52    0.000543   -0.003434   -0.002150
siesta:     53   -0.000303    0.007216   -0.002051
siesta:     54    0.003218    0.008790    0.003850
siesta:     55    0.004617   -0.002073   -0.009189
siesta:     56    0.020135    0.003476    0.006993
siesta:     57    0.002561   -0.014113   -0.011558
siesta:     58    0.005752    0.003407   -0.001931
siesta:     59   -0.011496    0.002026    0.001812
siesta:     60   -0.017291   -0.001780    0.020546
[...]
siesta:    216    0.001884   -0.034741    0.460246
siesta:    217    0.013200    0.016344    0.428778
siesta:    218   -0.019170    0.015645    0.438439
siesta:    219   -0.003495   -0.043025    0.474097
siesta:    220    0.023276    0.000623    0.462787
siesta:    221   -0.024355    0.022376    0.456883
siesta:    222    0.018334   -0.022701    0.449247
siesta:    223    0.006932    0.009785    0.447192
siesta:    224   -0.027191   -0.000131    0.430971
siesta:    225    0.001417   -0.027003    0.419386
siesta:    226    0.010823    0.027373    0.456093
siesta:    227   -0.009141   -0.008057    0.451042
siesta:    228    0.019526   -0.057230    0.441270
siesta:    229    0.004617   -0.010217    0.459267
siesta:    230   -0.032089    0.033400    0.441408
siesta: ----------------------------------------
siesta:    Tot    0.076995   -0.172698    1.439104

siesta: Stress tensor (static) (eV/Ang**3):
siesta:     0.008551   -0.000650    0.000037
siesta:    -0.000650    0.008163   -0.000163
siesta:     0.000037   -0.000163    0.004600

siesta: Cell volume =      10585.219648 Ang**3

siesta: Pressure (static):
siesta:                Solid            Molecule  Units
siesta:          -0.00007738         -0.00005925  Ry/Bohr**3
siesta:          -0.00710474         -0.00544011  eV/Ang**3
siesta:         -11.38316696         -8.71610736  kBar
(Free)E+ p_basis*V_orbitals  =     -648538.572261
(Free)Eharris+ p_basis*V_orbitals  =     -648538.572261

siesta: Electric dipole (a.u.)  =    0.000000    0.000000   -1.229748
siesta: Electric dipole (Debye) =    0.000000    0.000000   -3.125709

cite: Please see "Sn-Si-Ag.bib" for an exhaustive BiBTeX file.
cite: Please clearly indicate Siesta version in published work: unreleased efed74033 (2021-09-28)
cite: This calculation has made use of the following articles
cite: which are encouraged to be cited in a published work.
        Primary SIESTA paper
          DOI: www.doi.org/10.1088/0953-8984/14/11/302

>> End of run:   1-FEB-2022  14:55:09
Job completed